100
150
98
97
97
97
96
95
95
95
95
93
92
88
87
86
86
85
81
81
80
78
78
78
77
77
76
75
74
72
71
70
70
69
69
67
67
67
65
65
65
64
64
63
62
58
58
56
56
56
55
52
51
50
50
50
49
49
47
45
43
43
43
42
41
40
40
40
39
38
36
35
33
33
32
30
29
28
28
25
25
22
22
20
20
18
17
16
15
11
11
10
8
5
5
5
4
4
2
2
2
1
